Route #1: 25 68 47 22 40 65 80 4 58 94
Route #2: 10 18 83 61
Route #3: 33 103 39
Route #4: 98 53 69
Route #5: 48 5 32 38 60
Route #6: 62 117 27 30 85 108 26
Route #7: 55 36 79 1 46 63 118 109 111
Route #8: 41 29 104 71 67
Route #9: 13 2 70 115 88 89 105 51
Route #10: 95 20 101 107 7 77 64 54 121 84
Route #11: 100 12 99 73
Route #12: 17 78 28 124 50 49 82 56
Route #13: 72 119 45 76 93
Route #14: 21 91 112 110 122
Route #15: 24 23 66 116 15 92 81 42 74 97 44 123 14
Route #16: 113 8 57 86 96
Route #17: 34 6 59 9 19 11 114 87 16 52 3
Route #18: 120 35 43 31
Route #19: 75 37 106 90 102
Cost 40067.000000